100
300
30
0 0
13 34
65 4
77 21
63 41
61 21
81 69
13 46
53 66
54 68
82 60
85 55
7 73
71 31
53 47
47 20
56 81
25 32
34 58
41 69
100 9
95 95
0 61
35 28
28 39
52 11
49 75
45 80
62 28
16 27
40 23
0 0
70
60
30
70
60
50
50
60
70
40
30
70
50
60
30
70
60
30
70
60
50
50
60
70
40
30
70
50
60
30
